15714
1 0 1 0 0 1 0 0 1 0 0 1 0 0 1 0 0 1 0 0 1 0 0 0 1 0 0 0 0 0 
20 0 8 14 20 5 14 24 8 0 24 20 20 20 14 14 14 14 5 11 14 0 5 2 5 20 2 24 5 24 24 5 20 5 20 20 24 24 17 0 11 14 24 14 24 14 5 20 0 20 0 8 14 5 20 20 0 2 17 14 0 5 20 2 17 5 24 17 2 24 20 20 5 11 24 20 2 20 0 24 20 0 20 11 2 17 2 17 20 24 0 24 0 0 0 5 14 14 0 20 20 17 17 5 14 0 0 11 8 14 14 14 2 0 5 0 24 24 24 24 5 8 11 8 20 0 5 24 0 2 17 0 24 2 20 20 0 24 20 17 0 20 8 14 8 2 5 0 11 5 
